p cnf 379 718               
37 -117 0
38 -117 0
39 -117 0
40 -117 0
41 -117 0
42 -117 0
-37 -38 -39 -40 -41 -42 117 0
1 118 0
-37 118 0
-1 37 -118 0
118 -124 0
2 119 0
-38 119 0
-2 38 -119 0
119 -124 0
3 120 0
-39 120 0
-3 39 -120 0
120 -124 0
4 121 0
-40 121 0
-4 40 -121 0
121 -124 0
5 122 0
-41 122 0
-5 41 -122 0
122 -124 0
6 123 0
-42 123 0
-6 42 -123 0
123 -124 0
-118 -119 -120 -121 -122 -123 124 0
124 -160 0
7 125 0
-37 125 0
-7 37 -125 0
125 -131 0
8 126 0
-38 126 0
-8 38 -126 0
126 -131 0
9 127 0
-39 127 0
-9 39 -127 0
127 -131 0
10 128 0
-40 128 0
-10 40 -128 0
128 -131 0
11 129 0
-41 129 0
-11 41 -129 0
129 -131 0
12 130 0
-42 130 0
-12 42 -130 0
130 -131 0
-125 -126 -127 -128 -129 -130 131 0
131 -160 0
13 132 0
-37 132 0
-13 37 -132 0
132 -138 0
14 133 0
-38 133 0
-14 38 -133 0
133 -138 0
15 134 0
-39 134 0
-15 39 -134 0
134 -138 0
16 135 0
-40 135 0
-16 40 -135 0
135 -138 0
17 136 0
-41 136 0
-17 41 -136 0
136 -138 0
18 137 0
-42 137 0
-18 42 -137 0
137 -138 0
-132 -133 -134 -135 -136 -137 138 0
138 -160 0
19 139 0
-37 139 0
-19 37 -139 0
139 -145 0
20 140 0
-38 140 0
-20 38 -140 0
140 -145 0
21 141 0
-39 141 0
-21 39 -141 0
141 -145 0
22 142 0
-40 142 0
-22 40 -142 0
142 -145 0
23 143 0
-41 143 0
-23 41 -143 0
143 -145 0
24 144 0
-42 144 0
-24 42 -144 0
144 -145 0
-139 -140 -141 -142 -143 -144 145 0
145 -160 0
25 146 0
-37 146 0
-25 37 -146 0
146 -152 0
26 147 0
-38 147 0
-26 38 -147 0
147 -152 0
27 148 0
-39 148 0
-27 39 -148 0
148 -152 0
28 149 0
-40 149 0
-28 40 -149 0
149 -152 0
29 150 0
-41 150 0
-29 41 -150 0
150 -152 0
30 151 0
-42 151 0
-30 42 -151 0
151 -152 0
-146 -147 -148 -149 -150 -151 152 0
152 -160 0
31 153 0
-37 153 0
-31 37 -153 0
153 -159 0
32 154 0
-38 154 0
-32 38 -154 0
154 -159 0
33 155 0
-39 155 0
-33 39 -155 0
155 -159 0
34 156 0
-40 156 0
-34 40 -156 0
156 -159 0
35 157 0
-41 157 0
-35 41 -157 0
157 -159 0
36 158 0
-42 158 0
-36 42 -158 0
158 -159 0
-153 -154 -155 -156 -157 -158 159 0
159 -160 0
-124 -131 -138 -145 -152 -159 160 0
-117 -160 161 0
117 160 161 0
-160 160 161 0
-161 -162 0
-2 -1 -43 0
43 -53 0
-1 44 0
-2 44 0
1 2 -44 0
-44 -3 -45 0
45 -53 0
-3 46 0
-44 46 0
3 44 -46 0
-46 -4 -47 0
47 -53 0
-4 48 0
-46 48 0
4 46 -48 0
-48 -5 -49 0
49 -53 0
-5 50 0
-48 50 0
5 48 -50 0
-50 -6 -51 0
51 -53 0
6 50 -52 0
52 -53 0
53 -109 0
-8 -7 -54 0
54 -64 0
-7 55 0
-8 55 0
7 8 -55 0
-55 -9 -56 0
56 -64 0
-9 57 0
-55 57 0
9 55 -57 0
-57 -10 -58 0
58 -64 0
-10 59 0
-57 59 0
10 57 -59 0
-59 -11 -60 0
60 -64 0
-11 61 0
-59 61 0
11 59 -61 0
-61 -12 -62 0
62 -64 0
12 61 -63 0
63 -64 0
64 -109 0
-14 -13 -65 0
65 -75 0
-13 66 0
-14 66 0
13 14 -66 0
-66 -15 -67 0
67 -75 0
-15 68 0
-66 68 0
15 66 -68 0
-68 -16 -69 0
69 -75 0
-16 70 0
-68 70 0
16 68 -70 0
-70 -17 -71 0
71 -75 0
-17 72 0
-70 72 0
17 70 -72 0
-72 -18 -73 0
73 -75 0
18 72 -74 0
74 -75 0
75 -109 0
-20 -19 -76 0
76 -86 0
-19 77 0
-20 77 0
19 20 -77 0
-77 -21 -78 0
78 -86 0
-21 79 0
-77 79 0
21 77 -79 0
-79 -22 -80 0
80 -86 0
-22 81 0
-79 81 0
22 79 -81 0
-81 -23 -82 0
82 -86 0
-23 83 0
-81 83 0
23 81 -83 0
-83 -24 -84 0
84 -86 0
24 83 -85 0
85 -86 0
86 -109 0
-26 -25 -87 0
87 -97 0
-25 88 0
-26 88 0
25 26 -88 0
-88 -27 -89 0
89 -97 0
-27 90 0
-88 90 0
27 88 -90 0
-90 -28 -91 0
91 -97 0
-28 92 0
-90 92 0
28 90 -92 0
-92 -29 -93 0
93 -97 0
-29 94 0
-92 94 0
29 92 -94 0
-94 -30 -95 0
95 -97 0
30 94 -96 0
96 -97 0
97 -109 0
-32 -31 -98 0
98 -108 0
-31 99 0
-32 99 0
31 32 -99 0
-99 -33 -100 0
100 -108 0
-33 101 0
-99 101 0
33 99 -101 0
-101 -34 -102 0
102 -108 0
-34 103 0
-101 103 0
34 101 -103 0
-103 -35 -104 0
104 -108 0
-35 105 0
-103 105 0
35 103 -105 0
-105 -36 -106 0
106 -108 0
36 105 -107 0
107 -108 0
108 -109 0
109 -162 0
-6 -110 0
-5 -110 0
-4 -110 0
-3 -110 0
-2 -110 0
110 -116 0
-12 -111 0
-11 -111 0
-10 -111 0
-9 -111 0
-7 -111 0
111 -116 0
-18 -112 0
-17 -112 0
-16 -112 0
-14 -112 0
-13 -112 0
112 -116 0
-24 -113 0
-23 -113 0
-21 -113 0
-20 -113 0
-19 -113 0
113 -116 0
-30 -114 0
-28 -114 0
-27 -114 0
-26 -114 0
-25 -114 0
114 -116 0
-35 -115 0
-34 -115 0
-33 -115 0
-32 -115 0
-31 -115 0
115 -116 0
116 -162 0
-37 38 -163 0
163 -205 0
-37 -38 164 0
37 38 164 0
-38 38 164 0
-1 8 -165 0
-164 165 -166 0
166 -205 0
-1 -8 167 0
1 8 167 0
-8 8 167 0
-164 -167 168 0
-2 7 -169 0
-168 169 -170 0
170 -205 0
-2 -7 171 0
2 7 171 0
-7 7 171 0
-168 -171 172 0
-3 9 -173 0
-172 173 -174 0
174 -205 0
-3 -9 175 0
3 9 175 0
-9 9 175 0
-172 -175 176 0
-4 10 -177 0
-176 177 -178 0
178 -205 0
-4 -10 179 0
4 10 179 0
-10 10 179 0
-176 -179 180 0
-5 11 -181 0
-180 181 -182 0
182 -205 0
-5 -11 183 0
5 11 183 0
-11 11 183 0
-180 -183 184 0
-6 12 -185 0
-184 185 -186 0
186 -205 0
-6 -12 187 0
6 12 187 0
-12 12 187 0
-184 -187 188 0
-13 14 -189 0
-188 189 -190 0
190 -205 0
-13 -14 191 0
13 14 191 0
-14 14 191 0
-188 -191 192 0
-19 20 -193 0
-192 193 -194 0
194 -205 0
-19 -20 195 0
19 20 195 0
-20 20 195 0
-192 -195 196 0
-25 26 -197 0
-196 197 -198 0
198 -205 0
-25 -26 199 0
25 26 199 0
-26 26 199 0
-196 -199 200 0
-31 32 -201 0
-200 201 -202 0
202 -205 0
205 -378 0
-38 39 -206 0
206 -248 0
-38 -39 207 0
38 39 207 0
-39 39 207 0
-2 3 -208 0
-207 208 -209 0
209 -248 0
-2 -3 210 0
2 3 210 0
-3 3 210 0
-207 -210 211 0
-7 13 -212 0
-211 212 -213 0
213 -248 0
-7 -13 214 0
7 13 214 0
-13 13 214 0
-211 -214 215 0
-8 15 -216 0
-215 216 -217 0
217 -248 0
-8 -15 218 0
8 15 218 0
-15 15 218 0
-215 -218 219 0
-9 14 -220 0
-219 220 -221 0
221 -248 0
-9 -14 222 0
9 14 222 0
-14 14 222 0
-219 -222 223 0
-10 16 -224 0
-223 224 -225 0
225 -248 0
-10 -16 226 0
10 16 226 0
-16 16 226 0
-223 -226 227 0
-11 17 -228 0
-227 228 -229 0
229 -248 0
-11 -17 230 0
11 17 230 0
-17 17 230 0
-227 -230 231 0
-12 18 -232 0
-231 232 -233 0
233 -248 0
-12 -18 234 0
12 18 234 0
-18 18 234 0
-231 -234 235 0
-20 21 -236 0
-235 236 -237 0
237 -248 0
-20 -21 238 0
20 21 238 0
-21 21 238 0
-235 -238 239 0
-26 27 -240 0
-239 240 -241 0
241 -248 0
-26 -27 242 0
26 27 242 0
-27 27 242 0
-239 -242 243 0
-32 33 -244 0
-243 244 -245 0
245 -248 0
248 -378 0
-39 40 -249 0
249 -291 0
-39 -40 250 0
39 40 250 0
-40 40 250 0
-3 4 -251 0
-250 251 -252 0
252 -291 0
-3 -4 253 0
3 4 253 0
-4 4 253 0
-250 -253 254 0
-9 10 -255 0
-254 255 -256 0
256 -291 0
-9 -10 257 0
9 10 257 0
-10 10 257 0
-254 -257 258 0
-13 19 -259 0
-258 259 -260 0
260 -291 0
-13 -19 261 0
13 19 261 0
-19 19 261 0
-258 -261 262 0
-14 20 -263 0
-262 263 -264 0
264 -291 0
-14 -20 265 0
14 20 265 0
-20 20 265 0
-262 -265 266 0
-15 22 -267 0
-266 267 -268 0
268 -291 0
-15 -22 269 0
15 22 269 0
-22 22 269 0
-266 -269 270 0
-16 21 -271 0
-270 271 -272 0
272 -291 0
-16 -21 273 0
16 21 273 0
-21 21 273 0
-270 -273 274 0
-17 23 -275 0
-274 275 -276 0
276 -291 0
-17 -23 277 0
17 23 277 0
-23 23 277 0
-274 -277 278 0
-18 24 -279 0
-278 279 -280 0
280 -291 0
-18 -24 281 0
18 24 281 0
-24 24 281 0
-278 -281 282 0
-27 28 -283 0
-282 283 -284 0
284 -291 0
-27 -28 285 0
27 28 285 0
-28 28 285 0
-282 -285 286 0
-33 34 -287 0
-286 287 -288 0
288 -291 0
291 -378 0
-40 41 -292 0
292 -334 0
-40 -41 293 0
40 41 293 0
-41 41 293 0
-4 5 -294 0
-293 294 -295 0
295 -334 0
-4 -5 296 0
4 5 296 0
-5 5 296 0
-293 -296 297 0
-10 11 -298 0
-297 298 -299 0
299 -334 0
-10 -11 300 0
10 11 300 0
-11 11 300 0
-297 -300 301 0
-16 17 -302 0
-301 302 -303 0
303 -334 0
-16 -17 304 0
16 17 304 0
-17 17 304 0
-301 -304 305 0
-19 25 -306 0
-305 306 -307 0
307 -334 0
-19 -25 308 0
19 25 308 0
-25 25 308 0
-305 -308 309 0
-20 26 -310 0
-309 310 -311 0
311 -334 0
-20 -26 312 0
20 26 312 0
-26 26 312 0
-309 -312 313 0
-21 27 -314 0
-313 314 -315 0
315 -334 0
-21 -27 316 0
21 27 316 0
-27 27 316 0
-313 -316 317 0
-22 29 -318 0
-317 318 -319 0
319 -334 0
-22 -29 320 0
22 29 320 0
-29 29 320 0
-317 -320 321 0
-23 28 -322 0
-321 322 -323 0
323 -334 0
-23 -28 324 0
23 28 324 0
-28 28 324 0
-321 -324 325 0
-24 30 -326 0
-325 326 -327 0
327 -334 0
-24 -30 328 0
24 30 328 0
-30 30 328 0
-325 -328 329 0
-34 35 -330 0
-329 330 -331 0
331 -334 0
334 -378 0
-41 42 -335 0
335 -377 0
-41 -42 336 0
41 42 336 0
-42 42 336 0
-5 6 -337 0
-336 337 -338 0
338 -377 0
-5 -6 339 0
5 6 339 0
-6 6 339 0
-336 -339 340 0
-11 12 -341 0
-340 341 -342 0
342 -377 0
-11 -12 343 0
11 12 343 0
-12 12 343 0
-340 -343 344 0
-17 18 -345 0
-344 345 -346 0
346 -377 0
-17 -18 347 0
17 18 347 0
-18 18 347 0
-344 -347 348 0
-23 24 -349 0
-348 349 -350 0
350 -377 0
-23 -24 351 0
23 24 351 0
-24 24 351 0
-348 -351 352 0
-25 31 -353 0
-352 353 -354 0
354 -377 0
-25 -31 355 0
25 31 355 0
-31 31 355 0
-352 -355 356 0
-26 32 -357 0
-356 357 -358 0
358 -377 0
-26 -32 359 0
26 32 359 0
-32 32 359 0
-356 -359 360 0
-27 33 -361 0
-360 361 -362 0
362 -377 0
-27 -33 363 0
27 33 363 0
-33 33 363 0
-360 -363 364 0
-28 34 -365 0
-364 365 -366 0
366 -377 0
-28 -34 367 0
28 34 367 0
-34 34 367 0
-364 -367 368 0
-29 36 -369 0
-368 369 -370 0
370 -377 0
-29 -36 371 0
29 36 371 0
-36 36 371 0
-368 -371 372 0
-30 35 -373 0
-372 373 -374 0
374 -377 0
377 -378 0
162 0
378 0
